Instance: E072-04f.dat
Class:  5
   71 --- number of customers (no depot)
   16 --- number of vehicles
  226 --- number of items
Capacity - height - width of vehicles
 30000     40     20
Node - x - y - demand
    0     0.0     0.0     0.0
    1   -12.0    -6.0  7063.0
    2   -15.0    -5.0    51.0
    3    -1.0   -18.0    23.0
    4     2.0   -21.0  3074.0
    5    -1.0   -17.0   349.0
    6    -9.0   -12.0  1047.0
    7     2.0   -22.0   698.0
    8     1.0   -21.0  3001.0
    9     7.0   -25.0    31.0
   10    -7.0   -17.0  1135.0
   11   -11.0    -5.0 21611.0
   12   -14.0    -9.0    57.0
   13   -14.0    -8.0    51.0
   14   -11.0    -2.0   551.0
   15   -14.0    -5.0   179.0
   16   -15.0    -9.0     6.0
   17   -15.0    -8.0   528.0
   18    -9.0    -6.0  2832.0
   19   -14.0    -4.0  1514.0
   20     3.0     6.0   889.0
   21     5.0     9.0  2554.0
   22     5.0    10.0  1215.0
   23     2.0     8.0  1810.0
   24     1.0     9.0  3050.0
   25     1.0    10.0     4.0
   26     2.0     9.0  1563.0
   27     6.0    14.0   741.0
   28     5.0    12.0  1532.0
   29     3.0     7.0   709.0
   30     4.0     8.0  1022.0
   31    -6.0     1.0   883.0
   32    -6.0     2.0  1689.0
   33    -8.0    -2.0 10235.0
   34    -7.0     2.0    29.0
   35    -7.0    -3.0  2894.0
   36    -7.0    -2.0   450.0
   37   -20.0    12.0   411.0
   38   -20.0    13.0   207.0
   39   -12.0    10.0   496.0
   40   -20.0    15.0  1021.0
   41    -6.0     8.0   117.0
   42     2.0    21.0    46.0
   43     2.0    22.0     8.0
   44     1.0    21.0    18.0
   45    -1.0    24.0   561.0
   46     1.0    22.0  1877.0
   47    -2.0    20.0  3542.0
   48    -2.0    21.0   801.0
   49    -4.0    18.0   967.0
   50    -4.0    19.0    62.0
   51    -5.0    18.0  1366.0
   52    -5.0    26.0   230.0
   53     1.0    23.0     4.0
   54    -6.0     5.0    12.0
   55    -6.0     6.0   145.0
   56    -9.0     6.0  7149.0
   57    -9.0     7.0  2250.0
   58   -12.0     5.0   383.0
   59   -12.0     6.0   134.0
   60   -11.0     3.0  1947.0
   61   -11.0     4.0   182.0
   62   -14.0     4.0  3934.0
   63   -14.0     5.0   468.0
   64   -15.0     4.0    18.0
   65   -15.0     5.0   133.0
   66   -16.0     7.0  2340.0
   67   -16.0     8.0   754.0
   68   -15.0    10.0  1264.0
   69   -20.0    10.0   806.0
   70    -5.0    19.0  3665.0
   71    -9.0   -11.0  2452.0
Node - number of items - h - w for each item
    0   0
    1   5    6    5   10    4    5    3    5    3   16    2
    2   2    8    3   17    2
    3   1   13    3
    4   3    8    6   13    4   21    3
    5   3    8   11    6    6   13    4
    6   1   17    2
    7   4    9    6    8    4   21    2    6    2
    8   5    4   10    9    5    8    5   10    4   19    3
    9   2    6    8   11    4
   10   5   23    3    4    3    4    3   12    2    9    2
   11   3    6    4   14    3   24    2
   12   3    6    7    7    4    7    3
   13   1    5    3
   14   3    9    4    8    4    7    3
   15   3    6   11   11    3   10    3
   16   5    8   11    7    5   18    3    7    3    5    3
   17   5   10    4    5    4   23    3    5    3   23    2
   18   5    8    9    4    8    7    6    7    5   13    4
   19   2    4    4    8    3
   20   5    5    5   16    3   14    3   11    3   15    2
   21   3    6    8   11    2    6    2
   22   2    5    9    5    3
   23   3    5    6    9    5   10    4
   24   1    8    2
   25   1   11    4
   26   1    4   11
   27   2    5   10    5    5
   28   5    7   11   19    4    7    4    7    4    5    4
   29   5    6    7    8    6    7    6    9    5    7    3
   30   4    7   12    6   10    6    9    5    4
   31   4    7    8    7    5   10    3    7    2
   32   5    5   11    8    3    6    3   11    2    8    2
   33   3    7   12   20    3   11    3
   34   1    6    4
   35   5    7    7   23    3   15    3    9    3    7    3
   36   3    6    6   12    5    7    5
   37   3    5   11    5    9    5    2
   38   5    7   11    5   11    5   10    7    9    8    3
   39   4    7    9   17    4   17    3   12    2
   40   3    8    6   22    3    7    2
   41   1   16    4
   42   4   10    6   12    5   14    3   11    3
   43   4    5    5   12    4    8    4   15    2
   44   5    6   11   17    4   14    4    7    4    6    2
   45   2    9    5    4    5
   46   2    6    6   12    5
   47   1   18    4
   48   3    6    8    9    6   11    4
   49   3   16    3    7    3    6    3
   50   3    5    7   19    3    8    3
   51   4   10    4    5    4   12    2    9    2
   52   2   12    4   17    2
   53   2    5   10    8    3
   54   5    8    8    9    5   12    4   11    4    8    3
   55   4    6    9   12    3   12    3    7    3
   56   5    7   11    5    5   23    3   10    3    5    3
   57   5    8    5    7    4   21    3   19    3   15    3
   58   1   13    3
   59   4    4   12    4    5    7    3    5    3
   60   1    8    5
   61   3    5    5   22    3    4    3
   62   5    6   12    5    5   19    4   20    3    8    3
   63   2   15    3    8    3
   64   4    4   11   10    5    6    5   14    4
   65   5    9    6   13    4   13    3    5    3    9    2
   66   4    6    4    7    3   21    2    7    2
   67   5    5    9    6    6    4    5    6    4    4    4
   68   1    5    2
   69   2    8    4   20    2
   70   1    8    4
   71   4    7    4    4    4   14    3    8    3
